(set-info :smt-lib-version 2.6)
(set-logic UF)
(set-info :source |Benchmarks from the paper: "Extending Sledgehammer with SMT Solvers" by Jasmin Blanchette, Sascha Bohme, and Lawrence C. Paulson, CADE 2011.  Translated to SMT2 by Andrew Reynolds and Morgan Deters.|)
(set-info :category "industrial")
(set-info :status unknown)
(declare-sort S1 0)
(declare-sort S2 0)
(declare-sort S3 0)
(declare-sort S4 0)
(declare-sort S5 0)
(declare-sort S6 0)
(declare-sort S7 0)
(declare-sort S8 0)
(declare-sort S9 0)
(declare-sort S10 0)
(declare-sort S11 0)
(declare-sort S12 0)
(declare-sort S13 0)
(declare-sort S14 0)
(declare-sort S15 0)
(declare-sort S16 0)
(declare-sort S17 0)
(declare-sort S18 0)
(declare-sort S19 0)
(declare-sort S20 0)
(declare-sort S21 0)
(declare-sort S22 0)
(declare-sort S23 0)
(declare-sort S24 0)
(declare-sort S25 0)
(declare-sort S26 0)
(declare-sort S27 0)
(declare-sort S28 0)
(declare-sort S29 0)
(declare-sort S30 0)
(declare-sort S31 0)
(declare-sort S32 0)
(declare-sort S33 0)
(declare-sort S34 0)
(declare-sort S35 0)
(declare-sort S36 0)
(declare-sort S37 0)
(declare-sort S38 0)
(declare-sort S39 0)
(declare-sort S40 0)
(declare-sort S41 0)
(declare-sort S42 0)
(declare-sort S43 0)
(declare-sort S44 0)
(declare-sort S45 0)
(declare-sort S46 0)
(declare-sort S47 0)
(declare-sort S48 0)
(declare-sort S49 0)
(declare-sort S50 0)
(declare-sort S51 0)
(declare-sort S52 0)
(declare-sort S53 0)
(declare-sort S54 0)
(declare-sort S55 0)
(declare-sort S56 0)
(declare-sort S57 0)
(declare-sort S58 0)
(declare-sort S59 0)
(declare-sort S60 0)
(declare-sort S61 0)
(declare-sort S62 0)
(declare-sort S63 0)
(declare-sort S64 0)
(declare-sort S65 0)
(declare-sort S66 0)
(declare-sort S67 0)
(declare-sort S68 0)
(declare-sort S69 0)
(declare-sort S70 0)
(declare-sort S71 0)
(declare-sort S72 0)
(declare-sort S73 0)
(declare-fun f1 () S1)
(declare-fun f2 () S1)
(declare-fun f3 (S2 S3) S4)
(declare-fun f4 (S5 S4) S2)
(declare-fun f5 () S5)
(declare-fun f6 () S4)
(declare-fun f7 (S6 S4) S3)
(declare-fun f8 () S6)
(declare-fun f9 () S4)
(declare-fun f10 (S7 S4) S4)
(declare-fun f11 (S8 S4) S7)
(declare-fun f12 () S8)
(declare-fun f13 (S9 S10) S7)
(declare-fun f14 () S9)
(declare-fun f15 (S11 S10) S10)
(declare-fun f16 (S12 S10) S11)
(declare-fun f17 () S12)
(declare-fun f18 () S10)
(declare-fun f19 () S10)
(declare-fun f20 () S4)
(declare-fun f21 () S10)
(declare-fun f22 () S3)
(declare-fun f23 (S13 S14) S3)
(declare-fun f24 () S13)
(declare-fun f25 (S15 S3) S14)
(declare-fun f26 (S16 S14) S15)
(declare-fun f27 () S16)
(declare-fun f28 (S17 S14) S14)
(declare-fun f29 (S18 S4) S17)
(declare-fun f30 () S18)
(declare-fun f31 () S4)
(declare-fun f32 () S14)
(declare-fun f33 (S20 S21) S3)
(declare-fun f34 () S20)
(declare-fun f35 (S22 S3) S21)
(declare-fun f36 (S23 S21) S22)
(declare-fun f37 () S23)
(declare-fun f38 (S24 S21) S21)
(declare-fun f39 (S25 S19) S24)
(declare-fun f40 () S25)
(declare-fun f41 () S19)
(declare-fun f42 () S21)
(declare-fun f43 (S27 S28) S3)
(declare-fun f44 () S27)
(declare-fun f45 (S29 S3) S28)
(declare-fun f46 (S30 S28) S29)
(declare-fun f47 () S30)
(declare-fun f48 (S31 S28) S28)
(declare-fun f49 (S32 S26) S31)
(declare-fun f50 () S32)
(declare-fun f51 () S26)
(declare-fun f52 () S28)
(declare-fun f53 (S33 S26) S3)
(declare-fun f54 () S33)
(declare-fun f55 (S34 S3) S26)
(declare-fun f56 (S35 S26) S34)
(declare-fun f57 () S35)
(declare-fun f58 (S36 S26) S26)
(declare-fun f59 (S37 S3) S36)
(declare-fun f60 () S37)
(declare-fun f61 () S3)
(declare-fun f62 () S26)
(declare-fun f63 (S39 S19) S3)
(declare-fun f64 () S39)
(declare-fun f65 (S40 S3) S19)
(declare-fun f66 (S41 S19) S40)
(declare-fun f67 () S41)
(declare-fun f68 (S42 S19) S19)
(declare-fun f69 (S43 S38) S42)
(declare-fun f70 () S43)
(declare-fun f71 () S38)
(declare-fun f72 () S19)
(declare-fun f73 () S14)
(declare-fun f74 () S21)
(declare-fun f75 () S28)
(declare-fun f76 (S44 S45) S45)
(declare-fun f77 (S46 S14) S44)
(declare-fun f78 () S46)
(declare-fun f79 () S45)
(declare-fun f80 () S38)
(declare-fun f81 (S47 S3) S10)
(declare-fun f82 (S48 S10) S47)
(declare-fun f83 () S48)
(declare-fun f84 () S12)
(declare-fun f85 (S49 S3) S3)
(declare-fun f86 (S50 S3) S49)
(declare-fun f87 () S50)
(declare-fun f88 () S50)
(declare-fun f89 (S51 S3) S38)
(declare-fun f90 (S52 S38) S51)
(declare-fun f91 () S52)
(declare-fun f92 (S53 S19) S42)
(declare-fun f93 () S53)
(declare-fun f94 (S54 S14) S17)
(declare-fun f95 () S54)
(declare-fun f96 (S55 S38) S38)
(declare-fun f97 (S56 S38) S55)
(declare-fun f98 () S56)
(declare-fun f99 (S57 S26) S36)
(declare-fun f100 () S57)
(declare-fun f101 (S58 S4) S1)
(declare-fun f102 (S59 S4) S11)
(declare-fun f103 () S59)
(declare-fun f104 (S60 S56) S52)
(declare-fun f105 (S61 S38) S60)
(declare-fun f106 () S61)
(declare-fun f107 (S62 S50) S50)
(declare-fun f108 (S63 S3) S62)
(declare-fun f109 () S63)
(declare-fun f110 (S64 S12) S48)
(declare-fun f111 (S65 S10) S64)
(declare-fun f112 () S65)
(declare-fun f113 (S66 S8) S5)
(declare-fun f114 (S67 S4) S66)
(declare-fun f115 () S67)
(declare-fun f116 (S4) S58)
(declare-fun f117 (S3 S3) S1)
(declare-fun f118 (S38 S38) S1)
(declare-fun f119 (S10 S10) S1)
(declare-fun f120 (S68 S19) S55)
(declare-fun f121 () S68)
(declare-fun f122 (S69 S26) S49)
(declare-fun f123 () S69)
(declare-fun f124 (S70 S14) S7)
(declare-fun f125 () S70)
(declare-fun f126 (S71 S10) S6)
(declare-fun f127 () S71)
(declare-fun f128 (S72 S38) S39)
(declare-fun f129 () S72)
(declare-fun f130 (S73 S4) S13)
(declare-fun f131 () S73)
(declare-fun f132 () S11)
(declare-fun f133 (S19 S19) S1)
(declare-fun f134 () S55)
(assert (not (= f1 f2)))
(assert (not (= (f3 (f4 f5 f6) (f7 f8 f9)) (f10 (f11 f12 f9) (f10 (f13 f14 (f15 (f16 f17 f18) f19)) f20)))))
(assert (= f9 (f10 (f13 f14 f19) f20)))
(assert (not (= f19 f21)))
(assert (= (f7 f8 f9) f22))
(assert (not (= f19 f21)))
(assert (= (f7 f8 f9) f22))
(assert (not (= f9 f20)))
(assert (= f9 (f10 (f13 f14 f19) f20)))
(assert (=> (forall ((?v0 S10)) (=> (= f9 (f10 (f13 f14 ?v0) f20)) (=> (not (= ?v0 f21)) false))) false))
(assert (forall ((?v0 S4) (?v1 S3)) (= (f23 f24 (f25 (f26 f27 (f28 (f29 f30 ?v0) (f28 (f29 f30 f31) f32))) ?v1)) ?v1)))
(assert (forall ((?v0 S19) (?v1 S3)) (= (f33 f34 (f35 (f36 f37 (f38 (f39 f40 ?v0) (f38 (f39 f40 f41) f42))) ?v1)) ?v1)))
(assert (forall ((?v0 S26) (?v1 S3)) (= (f43 f44 (f45 (f46 f47 (f48 (f49 f50 ?v0) (f48 (f49 f50 f51) f52))) ?v1)) ?v1)))
(assert (forall ((?v0 S3) (?v1 S3)) (= (f53 f54 (f55 (f56 f57 (f58 (f59 f60 ?v0) (f58 (f59 f60 f61) f62))) ?v1)) ?v1)))
(assert (forall ((?v0 S38) (?v1 S3)) (= (f63 f64 (f65 (f66 f67 (f68 (f69 f70 ?v0) (f68 (f69 f70 f71) f72))) ?v1)) ?v1)))
(assert (forall ((?v0 S10) (?v1 S3)) (= (f7 f8 (f3 (f4 f5 (f10 (f13 f14 ?v0) (f10 (f13 f14 f18) f20))) ?v1)) ?v1)))
(assert (= f73 (f28 (f29 f30 f31) f32)))
(assert (= f74 (f38 (f39 f40 f41) f42)))
(assert (= f75 (f48 (f49 f50 f51) f52)))
(assert (= f51 (f58 (f59 f60 f61) f62)))
(assert (= f41 (f68 (f69 f70 f71) f72)))
(assert (= f31 (f10 (f13 f14 f18) f20)))
(assert (= (f38 (f39 f40 f72) f42) f42))
(assert (= (f76 (f77 f78 f32) f79) f79))
(assert (= (f48 (f49 f50 f62) f52) f52))
(assert (= (f28 (f29 f30 f20) f32) f32))
(assert (= (f58 (f59 f60 f22) f62) f62))
(assert (= (f68 (f69 f70 f80) f72) f72))
(assert (= (f10 (f13 f14 f21) f20) f20))
(assert (forall ((?v0 S19) (?v1 S21)) (= (= (f38 (f39 f40 ?v0) ?v1) f42) (and (= ?v0 f72) (= ?v1 f42)))))
(assert (forall ((?v0 S14) (?v1 S45)) (= (= (f76 (f77 f78 ?v0) ?v1) f79) (and (= ?v0 f32) (= ?v1 f79)))))
(assert (forall ((?v0 S26) (?v1 S28)) (= (= (f48 (f49 f50 ?v0) ?v1) f52) (and (= ?v0 f62) (= ?v1 f52)))))
(assert (forall ((?v0 S4) (?v1 S14)) (= (= (f28 (f29 f30 ?v0) ?v1) f32) (and (= ?v0 f20) (= ?v1 f32)))))
(assert (forall ((?v0 S3) (?v1 S26)) (= (= (f58 (f59 f60 ?v0) ?v1) f62) (and (= ?v0 f22) (= ?v1 f62)))))
(assert (forall ((?v0 S38) (?v1 S19)) (= (= (f68 (f69 f70 ?v0) ?v1) f72) (and (= ?v0 f80) (= ?v1 f72)))))
(assert (forall ((?v0 S10) (?v1 S4)) (= (= (f10 (f13 f14 ?v0) ?v1) f20) (and (= ?v0 f21) (= ?v1 f20)))))
(assert (forall ((?v0 S10) (?v1 S3)) (let ((?v_0 (f16 f17 f18))) (= (f15 ?v_0 (f81 (f82 f83 ?v0) ?v1)) (f81 (f82 f83 (f15 ?v_0 ?v0)) ?v1)))))
(assert (forall ((?v0 S10) (?v1 S10) (?v2 S3)) (=> (not (= ?v0 f21)) (= (f81 (f82 f83 (f15 (f16 f17 ?v1) ?v0)) ?v2) (f15 (f16 f17 (f81 (f82 f83 ?v1) ?v2)) (f81 (f82 f83 ?v0) ?v2))))))
(assert (forall ((?v0 S10)) (= (f15 (f16 f17 ?v0) ?v0) (ite (= ?v0 f21) f21 f18))))
(assert (forall ((?v0 S10)) (=> (not (= ?v0 f21)) (= (f15 (f16 f17 ?v0) ?v0) f18))))
(assert (forall ((?v0 S10) (?v1 S10)) (=> (not (= ?v0 f21)) (= (= (f15 (f16 f17 ?v1) ?v0) f18) (= ?v1 ?v0)))))
(assert (forall ((?v0 S10) (?v1 S10) (?v2 S10)) (= (= ?v0 (f15 (f16 f17 ?v1) ?v2)) (ite (not (= ?v2 f21)) (= (f15 (f16 f84 ?v0) ?v2) ?v1) (= ?v0 f21)))))
(assert (forall ((?v0 S10) (?v1 S10) (?v2 S10)) (= (= (f15 (f16 f17 ?v0) ?v1) ?v2) (ite (not (= ?v1 f21)) (= ?v0 (f15 (f16 f84 ?v2) ?v1)) (= ?v2 f21)))))
(assert (forall ((?v0 S10) (?v1 S10) (?v2 S10)) (=> (not (= ?v0 f21)) (= (= ?v1 (f15 (f16 f17 ?v2) ?v0)) (= (f15 (f16 f84 ?v1) ?v0) ?v2)))))
(assert (= (f63 f64 f41) f22))
(assert (= (f53 f54 f51) f22))
(assert (= (f7 f8 f31) f22))
(assert (forall ((?v0 S19) (?v1 S3) (?v2 S3)) (let ((?v_0 (f66 f67 ?v0))) (= (f65 ?v_0 (f85 (f86 f87 ?v1) ?v2)) (f65 (f66 f67 (f65 ?v_0 ?v1)) ?v2)))))
(assert (forall ((?v0 S10) (?v1 S3) (?v2 S3)) (let ((?v_0 (f82 f83 ?v0))) (= (f81 ?v_0 (f85 (f86 f87 ?v1) ?v2)) (f81 (f82 f83 (f81 ?v_0 ?v1)) ?v2)))))
(assert (forall ((?v0 S14) (?v1 S3) (?v2 S3)) (let ((?v_0 (f26 f27 ?v0))) (= (f25 ?v_0 (f85 (f86 f87 ?v1) ?v2)) (f25 (f26 f27 (f25 ?v_0 ?v1)) ?v2)))))
(assert (forall ((?v0 S3) (?v1 S3) (?v2 S3)) (let ((?v_0 (f86 f88 ?v0))) (= (f85 ?v_0 (f85 (f86 f87 ?v1) ?v2)) (f85 (f86 f88 (f85 ?v_0 ?v1)) ?v2)))))
(assert (forall ((?v0 S38) (?v1 S3) (?v2 S3)) (let ((?v_0 (f90 f91 ?v0))) (= (f89 ?v_0 (f85 (f86 f87 ?v1) ?v2)) (f89 (f90 f91 (f89 ?v_0 ?v1)) ?v2)))))
(assert (forall ((?v0 S26) (?v1 S3) (?v2 S3)) (let ((?v_0 (f56 f57 ?v0))) (= (f55 ?v_0 (f85 (f86 f87 ?v1) ?v2)) (f55 (f56 f57 (f55 ?v_0 ?v1)) ?v2)))))
(assert (forall ((?v0 S4) (?v1 S3) (?v2 S3)) (let ((?v_0 (f4 f5 ?v0))) (= (f3 ?v_0 (f85 (f86 f87 ?v1) ?v2)) (f3 (f4 f5 (f3 ?v_0 ?v1)) ?v2)))))
(assert (forall ((?v0 S19)) (= (f65 (f66 f67 ?v0) f61) ?v0)))
(assert (forall ((?v0 S10)) (= (f81 (f82 f83 ?v0) f61) ?v0)))
(assert (forall ((?v0 S14)) (= (f25 (f26 f27 ?v0) f61) ?v0)))
(assert (forall ((?v0 S3)) (= (f85 (f86 f88 ?v0) f61) ?v0)))
(assert (forall ((?v0 S38)) (= (f89 (f90 f91 ?v0) f61) ?v0)))
(assert (forall ((?v0 S26)) (= (f55 (f56 f57 ?v0) f61) ?v0)))
(assert (forall ((?v0 S4)) (= (f3 (f4 f5 ?v0) f61) ?v0)))
(assert (forall ((?v0 S19)) (= (f65 (f66 f67 ?v0) f22) f41)))
(assert (forall ((?v0 S26)) (= (f55 (f56 f57 ?v0) f22) f51)))
(assert (forall ((?v0 S14)) (= (f25 (f26 f27 ?v0) f22) f73)))
(assert (forall ((?v0 S4)) (= (f3 (f4 f5 ?v0) f22) f31)))
(assert (forall ((?v0 S10)) (= (f81 (f82 f83 ?v0) f22) f18)))
(assert (forall ((?v0 S3)) (= (f85 (f86 f88 ?v0) f22) f61)))
(assert (forall ((?v0 S38)) (= (f89 (f90 f91 ?v0) f22) f71)))
(assert (forall ((?v0 S38) (?v1 S19) (?v2 S38) (?v3 S19)) (= (= (f68 (f69 f70 ?v0) ?v1) (f68 (f69 f70 ?v2) ?v3)) (and (= ?v0 ?v2) (= ?v1 ?v3)))))
(assert (forall ((?v0 S3) (?v1 S26) (?v2 S3) (?v3 S26)) (= (= (f58 (f59 f60 ?v0) ?v1) (f58 (f59 f60 ?v2) ?v3)) (and (= ?v0 ?v2) (= ?v1 ?v3)))))
(assert (forall ((?v0 S4) (?v1 S14) (?v2 S4) (?v3 S14)) (= (= (f28 (f29 f30 ?v0) ?v1) (f28 (f29 f30 ?v2) ?v3)) (and (= ?v0 ?v2) (= ?v1 ?v3)))))
(assert (forall ((?v0 S10) (?v1 S4) (?v2 S10) (?v3 S4)) (= (= (f10 (f13 f14 ?v0) ?v1) (f10 (f13 f14 ?v2) ?v3)) (and (= ?v0 ?v2) (= ?v1 ?v3)))))
(assert (= (f63 f64 f72) f22))
(assert (= (f53 f54 f62) f22))
(assert (= (f23 f24 f32) f22))
(assert (= (f7 f8 f20) f22))
(assert (forall ((?v0 S38)) (= (f63 f64 (f68 (f69 f70 ?v0) f72)) f22)))
(assert (forall ((?v0 S3)) (= (f53 f54 (f58 (f59 f60 ?v0) f62)) f22)))
(assert (forall ((?v0 S4)) (= (f23 f24 (f28 (f29 f30 ?v0) f32)) f22)))
(assert (forall ((?v0 S10)) (= (f7 f8 (f10 (f13 f14 ?v0) f20)) f22)))
(assert (forall ((?v0 S19) (?v1 S19)) (=> (= (f68 (f92 f93 ?v0) ?v1) f72) (or (= ?v0 f72) (= ?v1 f72)))))
(assert (forall ((?v0 S14) (?v1 S14)) (=> (= (f28 (f94 f95 ?v0) ?v1) f32) (or (= ?v0 f32) (= ?v1 f32)))))
(assert (forall ((?v0 S4) (?v1 S4)) (=> (= (f10 (f11 f12 ?v0) ?v1) f20) (or (= ?v0 f20) (= ?v1 f20)))))
(assert (forall ((?v0 S10) (?v1 S10)) (=> (= (f15 (f16 f84 ?v0) ?v1) f21) (or (= ?v0 f21) (= ?v1 f21)))))
(assert (forall ((?v0 S3) (?v1 S3)) (=> (= (f85 (f86 f87 ?v0) ?v1) f22) (or (= ?v0 f22) (= ?v1 f22)))))
(assert (forall ((?v0 S38) (?v1 S38)) (=> (= (f96 (f97 f98 ?v0) ?v1) f80) (or (= ?v0 f80) (= ?v1 f80)))))
(assert (forall ((?v0 S19) (?v1 S19)) (=> (not (= ?v0 f72)) (=> (not (= ?v1 f72)) (not (= (f68 (f92 f93 ?v0) ?v1) f72))))))
(assert (forall ((?v0 S14) (?v1 S14)) (=> (not (= ?v0 f32)) (=> (not (= ?v1 f32)) (not (= (f28 (f94 f95 ?v0) ?v1) f32))))))
(assert (forall ((?v0 S4) (?v1 S4)) (=> (not (= ?v0 f20)) (=> (not (= ?v1 f20)) (not (= (f10 (f11 f12 ?v0) ?v1) f20))))))
(assert (forall ((?v0 S10) (?v1 S10)) (=> (not (= ?v0 f21)) (=> (not (= ?v1 f21)) (not (= (f15 (f16 f84 ?v0) ?v1) f21))))))
(assert (forall ((?v0 S3) (?v1 S3)) (=> (not (= ?v0 f22)) (=> (not (= ?v1 f22)) (not (= (f85 (f86 f87 ?v0) ?v1) f22))))))
(assert (forall ((?v0 S38) (?v1 S38)) (=> (not (= ?v0 f80)) (=> (not (= ?v1 f80)) (not (= (f96 (f97 f98 ?v0) ?v1) f80))))))
(assert (forall ((?v0 S19) (?v1 S19)) (= (= (f68 (f92 f93 ?v0) ?v1) f72) (or (= ?v0 f72) (= ?v1 f72)))))
(assert (forall ((?v0 S14) (?v1 S14)) (= (= (f28 (f94 f95 ?v0) ?v1) f32) (or (= ?v0 f32) (= ?v1 f32)))))
(assert (forall ((?v0 S4) (?v1 S4)) (= (= (f10 (f11 f12 ?v0) ?v1) f20) (or (= ?v0 f20) (= ?v1 f20)))))
(assert (forall ((?v0 S10) (?v1 S10)) (= (= (f15 (f16 f84 ?v0) ?v1) f21) (or (= ?v0 f21) (= ?v1 f21)))))
(assert (forall ((?v0 S38) (?v1 S38)) (= (= (f96 (f97 f98 ?v0) ?v1) f80) (or (= ?v0 f80) (= ?v1 f80)))))
(assert (forall ((?v0 S19)) (= (f68 (f92 f93 ?v0) f72) f72)))
(assert (forall ((?v0 S14)) (= (f28 (f94 f95 ?v0) f32) f32)))
(assert (forall ((?v0 S26)) (= (f58 (f99 f100 ?v0) f62) f62)))
(assert (forall ((?v0 S4)) (= (f10 (f11 f12 ?v0) f20) f20)))
(assert (forall ((?v0 S10)) (= (f15 (f16 f84 ?v0) f21) f21)))
(assert (forall ((?v0 S3)) (= (f85 (f86 f87 ?v0) f22) f22)))
(assert (forall ((?v0 S38)) (= (f96 (f97 f98 ?v0) f80) f80)))
(assert (forall ((?v0 S19)) (= (f68 (f92 f93 f72) ?v0) f72)))
(assert (forall ((?v0 S14)) (= (f28 (f94 f95 f32) ?v0) f32)))
(assert (forall ((?v0 S26)) (= (f58 (f99 f100 f62) ?v0) f62)))
(assert (forall ((?v0 S4)) (= (f10 (f11 f12 f20) ?v0) f20)))
(assert (forall ((?v0 S10)) (= (f15 (f16 f84 f21) ?v0) f21)))
(assert (forall ((?v0 S3)) (= (f85 (f86 f87 f22) ?v0) f22)))
(assert (forall ((?v0 S38)) (= (f96 (f97 f98 f80) ?v0) f80)))
(assert (not (= f72 f41)))
(assert (not (= f62 f51)))
(assert (not (= f32 f73)))
(assert (not (= f20 f31)))
(assert (not (= f21 f18)))
(assert (not (= f22 f61)))
(assert (not (= f80 f71)))
(assert (not (= f41 f72)))
(assert (not (= f51 f62)))
(assert (not (= f73 f32)))
(assert (not (= f31 f20)))
(assert (not (= f18 f21)))
(assert (not (= f61 f22)))
(assert (not (= f71 f80)))
(assert (forall ((?v0 S19) (?v1 S3)) (=> (not (= ?v0 f72)) (not (= (f65 (f66 f67 ?v0) ?v1) f72)))))
(assert (forall ((?v0 S14) (?v1 S3)) (=> (not (= ?v0 f32)) (not (= (f25 (f26 f27 ?v0) ?v1) f32)))))
(assert (forall ((?v0 S4) (?v1 S3)) (=> (not (= ?v0 f20)) (not (= (f3 (f4 f5 ?v0) ?v1) f20)))))
(assert (forall ((?v0 S10) (?v1 S3)) (=> (not (= ?v0 f21)) (not (= (f81 (f82 f83 ?v0) ?v1) f21)))))
(assert (forall ((?v0 S38) (?v1 S3)) (=> (not (= ?v0 f80)) (not (= (f89 (f90 f91 ?v0) ?v1) f80)))))
(assert (forall ((?v0 S19) (?v1 S3)) (= (= (f65 (f66 f67 ?v0) ?v1) f72) (and (= ?v0 f72) (not (= ?v1 f22))))))
(assert (forall ((?v0 S14) (?v1 S3)) (= (= (f25 (f26 f27 ?v0) ?v1) f32) (and (= ?v0 f32) (not (= ?v1 f22))))))
(assert (forall ((?v0 S4) (?v1 S3)) (= (= (f3 (f4 f5 ?v0) ?v1) f20) (and (= ?v0 f20) (not (= ?v1 f22))))))
(assert (forall ((?v0 S10) (?v1 S3)) (= (= (f81 (f82 f83 ?v0) ?v1) f21) (and (= ?v0 f21) (not (= ?v1 f22))))))
(assert (forall ((?v0 S3) (?v1 S3)) (= (= (f85 (f86 f88 ?v0) ?v1) f22) (and (= ?v0 f22) (not (= ?v1 f22))))))
(assert (forall ((?v0 S38) (?v1 S3)) (= (= (f89 (f90 f91 ?v0) ?v1) f80) (and (= ?v0 f80) (not (= ?v1 f22))))))
(assert (forall ((?v0 S10)) (= (f15 (f16 f17 ?v0) f21) f21)))
(assert (forall ((?v0 S10)) (= (f15 (f16 f17 f21) ?v0) f21)))
(assert (forall ((?v0 S19) (?v1 S19) (?v2 S3)) (= (f65 (f66 f67 (f68 (f92 f93 ?v0) ?v1)) ?v2) (f68 (f92 f93 (f65 (f66 f67 ?v0) ?v2)) (f65 (f66 f67 ?v1) ?v2)))))
(assert (forall ((?v0 S10) (?v1 S10) (?v2 S3)) (= (f81 (f82 f83 (f15 (f16 f84 ?v0) ?v1)) ?v2) (f15 (f16 f84 (f81 (f82 f83 ?v0) ?v2)) (f81 (f82 f83 ?v1) ?v2)))))
(assert (forall ((?v0 S14) (?v1 S14) (?v2 S3)) (= (f25 (f26 f27 (f28 (f94 f95 ?v0) ?v1)) ?v2) (f28 (f94 f95 (f25 (f26 f27 ?v0) ?v2)) (f25 (f26 f27 ?v1) ?v2)))))
(assert (forall ((?v0 S38) (?v1 S38) (?v2 S3)) (= (f89 (f90 f91 (f96 (f97 f98 ?v0) ?v1)) ?v2) (f96 (f97 f98 (f89 (f90 f91 ?v0) ?v2)) (f89 (f90 f91 ?v1) ?v2)))))
(assert (forall ((?v0 S26) (?v1 S26) (?v2 S3)) (= (f55 (f56 f57 (f58 (f99 f100 ?v0) ?v1)) ?v2) (f58 (f99 f100 (f55 (f56 f57 ?v0) ?v2)) (f55 (f56 f57 ?v1) ?v2)))))
(assert (forall ((?v0 S3) (?v1 S3) (?v2 S3)) (= (f85 (f86 f88 (f85 (f86 f87 ?v0) ?v1)) ?v2) (f85 (f86 f87 (f85 (f86 f88 ?v0) ?v2)) (f85 (f86 f88 ?v1) ?v2)))))
(assert (forall ((?v0 S4) (?v1 S4) (?v2 S3)) (= (f3 (f4 f5 (f10 (f11 f12 ?v0) ?v1)) ?v2) (f10 (f11 f12 (f3 (f4 f5 ?v0) ?v2)) (f3 (f4 f5 ?v1) ?v2)))))
(assert (forall ((?v0 S19) (?v1 S3)) (let ((?v_0 (f65 (f66 f67 ?v0) ?v1))) (= (f68 (f92 f93 ?v_0) ?v0) (f68 (f92 f93 ?v0) ?v_0)))))
(assert (forall ((?v0 S10) (?v1 S3)) (let ((?v_0 (f81 (f82 f83 ?v0) ?v1))) (= (f15 (f16 f84 ?v_0) ?v0) (f15 (f16 f84 ?v0) ?v_0)))))
(assert (forall ((?v0 S14) (?v1 S3)) (let ((?v_0 (f25 (f26 f27 ?v0) ?v1))) (= (f28 (f94 f95 ?v_0) ?v0) (f28 (f94 f95 ?v0) ?v_0)))))
(assert (forall ((?v0 S38) (?v1 S3)) (let ((?v_0 (f89 (f90 f91 ?v0) ?v1))) (= (f96 (f97 f98 ?v_0) ?v0) (f96 (f97 f98 ?v0) ?v_0)))))
(assert (forall ((?v0 S26) (?v1 S3)) (let ((?v_0 (f55 (f56 f57 ?v0) ?v1))) (= (f58 (f99 f100 ?v_0) ?v0) (f58 (f99 f100 ?v0) ?v_0)))))
(assert (forall ((?v0 S3) (?v1 S3)) (let ((?v_0 (f85 (f86 f88 ?v0) ?v1))) (= (f85 (f86 f87 ?v_0) ?v0) (f85 (f86 f87 ?v0) ?v_0)))))
(assert (forall ((?v0 S4) (?v1 S3)) (let ((?v_0 (f3 (f4 f5 ?v0) ?v1))) (= (f10 (f11 f12 ?v_0) ?v0) (f10 (f11 f12 ?v0) ?v_0)))))
(assert (forall ((?v0 S3)) (= (f65 (f66 f67 f41) ?v0) f41)))
(assert (forall ((?v0 S3)) (= (f55 (f56 f57 f51) ?v0) f51)))
(assert (forall ((?v0 S3)) (= (f25 (f26 f27 f73) ?v0) f73)))
(assert (forall ((?v0 S3)) (= (f3 (f4 f5 f31) ?v0) f31)))
(assert (forall ((?v0 S3)) (= (f81 (f82 f83 f18) ?v0) f18)))
(assert (forall ((?v0 S3)) (= (f85 (f86 f88 f61) ?v0) f61)))
(assert (forall ((?v0 S3)) (= (f89 (f90 f91 f71) ?v0) f71)))
(assert (forall ((?v0 S10) (?v1 S10) (?v2 S10) (?v3 S10)) (= (f15 (f16 f84 (f15 (f16 f17 ?v0) ?v1)) (f15 (f16 f17 ?v2) ?v3)) (f15 (f16 f17 (f15 (f16 f84 ?v0) ?v2)) (f15 (f16 f84 ?v1) ?v3)))))
(assert (forall ((?v0 S10) (?v1 S10) (?v2 S10)) (let ((?v_0 (f16 f84 ?v0))) (= (f15 ?v_0 (f15 (f16 f17 ?v1) ?v2)) (f15 (f16 f17 (f15 ?v_0 ?v1)) ?v2)))))
(assert (forall ((?v0 S10)) (= (f15 (f16 f17 ?v0) f18) ?v0)))
(assert (forall ((?v0 S10) (?v1 S10) (?v2 S3)) (= (f81 (f82 f83 (f15 (f16 f17 ?v0) ?v1)) ?v2) (f15 (f16 f17 (f81 (f82 f83 ?v0) ?v2)) (f81 (f82 f83 ?v1) ?v2)))))
(assert (forall ((?v0 S14)) (= (f28 (f94 f95 ?v0) f32) f32)))
(assert (forall ((?v0 S26)) (= (f58 (f99 f100 ?v0) f62) f62)))
(assert (forall ((?v0 S4)) (= (f10 (f11 f12 ?v0) f20) f20)))
(assert (forall ((?v0 S4)) (= (f10 (f11 f12 f20) ?v0) f20)))
(assert (forall ((?v0 S3)) (= (f89 (f90 f91 f80) ?v0) (ite (= ?v0 f22) f71 f80))))
(assert (forall ((?v0 S3)) (= (f85 (f86 f88 f22) ?v0) (ite (= ?v0 f22) f61 f22))))
(assert (forall ((?v0 S3)) (= (f81 (f82 f83 f21) ?v0) (ite (= ?v0 f22) f18 f21))))
(assert (forall ((?v0 S3)) (= (f3 (f4 f5 f20) ?v0) (ite (= ?v0 f22) f31 f20))))
(assert (forall ((?v0 S10) (?v1 S10) (?v2 S10)) (=> (not (= ?v0 f21)) (=> (= (f15 (f16 f84 ?v1) ?v0) ?v2) (= ?v1 (f15 (f16 f17 ?v2) ?v0))))))
(assert (forall ((?v0 S10) (?v1 S10) (?v2 S10)) (=> (not (= ?v0 f21)) (=> (= ?v1 (f15 (f16 f84 ?v2) ?v0)) (= (f15 (f16 f17 ?v1) ?v0) ?v2)))))
(assert (forall ((?v0 S10) (?v1 S10) (?v2 S10) (?v3 S10)) (=> (not (= ?v0 f21)) (=> (not (= ?v1 f21)) (= (= (f15 (f16 f17 ?v2) ?v0) (f15 (f16 f17 ?v3) ?v1)) (= (f15 (f16 f84 ?v2) ?v1) (f15 (f16 f84 ?v3) ?v0)))))))
(assert (forall ((?v0 S10) (?v1 S10) (?v2 S10)) (let ((?v_0 (f16 f84 ?v0))) (=> (not (= ?v0 f21)) (= (f15 (f16 f17 (f15 ?v_0 ?v1)) (f15 ?v_0 ?v2)) (f15 (f16 f17 ?v1) ?v2))))))
(assert (forall ((?v0 S10) (?v1 S10) (?v2 S10)) (=> (not (= ?v0 f21)) (= (f15 (f16 f17 (f15 (f16 f84 ?v1) ?v0)) (f15 (f16 f84 ?v2) ?v0)) (f15 (f16 f17 ?v1) ?v2)))))
(assert (forall ((?v0 S10) (?v1 S10) (?v2 S10)) (=> (not (= ?v0 f21)) (= (= (f15 (f16 f17 ?v1) ?v0) ?v2) (= ?v1 (f15 (f16 f84 ?v2) ?v0))))))
(assert (forall ((?v0 S38)) (= (f89 (f90 f91 ?v0) f22) f71)))
(assert (forall ((?v0 S3)) (= (f85 (f86 f88 ?v0) f22) f61)))
(assert (forall ((?v0 S10)) (= (f81 (f82 f83 ?v0) f22) f18)))
(assert (forall ((?v0 S4)) (= (f3 (f4 f5 ?v0) f22) f31)))
(assert (forall ((?v0 S58) (?v1 S4)) (=> (= (f101 ?v0 f20) f1) (=> (forall ((?v2 S10) (?v3 S4)) (=> (= (f101 ?v0 ?v3) f1) (= (f101 ?v0 (f10 (f13 f14 ?v2) ?v3)) f1))) (= (f101 ?v0 ?v1) f1)))))
(assert (forall ((?v0 S10)) (not (= (f15 (f102 f103 f9) ?v0) f21))))
(assert (= f91 (f104 (f105 f106 f71) f98)))
(assert (= f88 (f107 (f108 f109 f61) f87)))
(assert (= f83 (f110 (f111 f112 f18) f84)))
(assert (= f5 (f113 (f114 f115 f31) f12)))
(assert (let ((?v_0 (= f9 f20))) (=> ?v_0 (= (forall ((?v0 S10)) (=> (= (f15 (f102 f103 f9) ?v0) f21) (= (f15 (f102 f103 f6) ?v0) f21))) (or (= (f101 (f116 f9) (f3 (f4 f5 f6) (f7 f8 f9))) f1) (and ?v_0 (= f6 f20)))))))
(assert (forall ((?v0 S4) (?v1 S4) (?v2 S3)) (= (f3 (f4 f5 (f10 (f11 f12 ?v0) ?v1)) ?v2) (f10 (f11 f12 (f3 (f4 f5 ?v0) ?v2)) (f3 (f4 f5 ?v1) ?v2)))))
(assert (forall ((?v0 S3) (?v1 S3) (?v2 S3)) (= (f85 (f86 f88 (f85 (f86 f87 ?v0) ?v1)) ?v2) (f85 (f86 f87 (f85 (f86 f88 ?v0) ?v2)) (f85 (f86 f88 ?v1) ?v2)))))
(assert (forall ((?v0 S10)) (= (f15 (f16 f17 f21) ?v0) f21)))
(assert (forall ((?v0 S38)) (= (f96 (f97 f98 ?v0) f71) ?v0)))
(assert (forall ((?v0 S3)) (= (f85 (f86 f87 ?v0) f61) ?v0)))
(assert (forall ((?v0 S10)) (= (f15 (f16 f84 ?v0) f18) ?v0)))
(assert (forall ((?v0 S4)) (= (f10 (f11 f12 ?v0) f31) ?v0)))
(assert (forall ((?v0 S38)) (= (f96 (f97 f98 ?v0) f71) ?v0)))
(assert (forall ((?v0 S3)) (= (f85 (f86 f87 ?v0) f61) ?v0)))
(assert (forall ((?v0 S10)) (= (f15 (f16 f84 ?v0) f18) ?v0)))
(assert (forall ((?v0 S4)) (= (f10 (f11 f12 ?v0) f31) ?v0)))
(assert (forall ((?v0 S38)) (= (f96 (f97 f98 ?v0) f71) ?v0)))
(assert (forall ((?v0 S3)) (= (f85 (f86 f87 ?v0) f61) ?v0)))
(assert (forall ((?v0 S10)) (= (f15 (f16 f84 ?v0) f18) ?v0)))
(assert (forall ((?v0 S4)) (= (f10 (f11 f12 ?v0) f31) ?v0)))
(assert (forall ((?v0 S3)) (= (f117 ?v0 f22) f1)))
(assert (forall ((?v0 S4)) (= (f101 (f116 ?v0) f20) f1)))
(assert (forall ((?v0 S38)) (= (f118 ?v0 f80) f1)))
(assert (forall ((?v0 S10)) (= (f119 ?v0 f21) f1)))
(assert (forall ((?v0 S3)) (= (f117 ?v0 ?v0) f1)))
(assert (forall ((?v0 S4)) (= (f101 (f116 ?v0) ?v0) f1)))
(assert (forall ((?v0 S4) (?v1 S4)) (= (= (f102 f103 ?v0) (f102 f103 ?v1)) (= ?v0 ?v1))))
(assert (forall ((?v0 S3) (?v1 S3) (?v2 S3)) (=> (= (f117 ?v0 ?v1) f1) (=> (= (f117 ?v1 ?v2) f1) (= (f117 ?v0 ?v2) f1)))))
(assert (forall ((?v0 S4) (?v1 S4) (?v2 S4)) (let ((?v_0 (f116 ?v0))) (=> (= (f101 ?v_0 ?v1) f1) (=> (= (f101 (f116 ?v1) ?v2) f1) (= (f101 ?v_0 ?v2) f1))))))
(assert (forall ((?v0 S3)) (=> (= (f117 f22 ?v0) f1) (= ?v0 f22))))
(assert (forall ((?v0 S4)) (=> (= (f101 (f116 f20) ?v0) f1) (= ?v0 f20))))
(assert (forall ((?v0 S38)) (=> (= (f118 f80 ?v0) f1) (= ?v0 f80))))
(assert (forall ((?v0 S10)) (=> (= (f119 f21 ?v0) f1) (= ?v0 f21))))
(assert (forall ((?v0 S3) (?v1 S3)) (= (f117 ?v0 (f85 (f86 f87 ?v0) ?v1)) f1)))
(assert (forall ((?v0 S4) (?v1 S4)) (= (f101 (f116 ?v0) (f10 (f11 f12 ?v0) ?v1)) f1)))
(assert (forall ((?v0 S3) (?v1 S3)) (= (f117 ?v0 (f85 (f86 f87 ?v1) ?v0)) f1)))
(assert (forall ((?v0 S4) (?v1 S4)) (= (f101 (f116 ?v0) (f10 (f11 f12 ?v1) ?v0)) f1)))
(assert (forall ((?v0 S3) (?v1 S3) (?v2 S3)) (=> (= (f117 ?v0 ?v1) f1) (= (f117 ?v0 (f85 (f86 f87 ?v1) ?v2)) f1))))
(assert (forall ((?v0 S4) (?v1 S4) (?v2 S4)) (let ((?v_0 (f116 ?v0))) (=> (= (f101 ?v_0 ?v1) f1) (= (f101 ?v_0 (f10 (f11 f12 ?v1) ?v2)) f1)))))
(assert (forall ((?v0 S3) (?v1 S3) (?v2 S3)) (=> (= (f117 ?v0 ?v1) f1) (= (f117 ?v0 (f85 (f86 f87 ?v2) ?v1)) f1))))
(assert (forall ((?v0 S4) (?v1 S4) (?v2 S4)) (let ((?v_0 (f116 ?v0))) (=> (= (f101 ?v_0 ?v1) f1) (= (f101 ?v_0 (f10 (f11 f12 ?v2) ?v1)) f1)))))
(assert (forall ((?v0 S3) (?v1 S3) (?v2 S3) (?v3 S3)) (=> (= (f117 ?v0 ?v1) f1) (=> (= (f117 ?v2 ?v3) f1) (= (f117 (f85 (f86 f87 ?v0) ?v2) (f85 (f86 f87 ?v1) ?v3)) f1)))))
(assert (forall ((?v0 S4) (?v1 S4) (?v2 S4) (?v3 S4)) (=> (= (f101 (f116 ?v0) ?v1) f1) (=> (= (f101 (f116 ?v2) ?v3) f1) (= (f101 (f116 (f10 (f11 f12 ?v0) ?v2)) (f10 (f11 f12 ?v1) ?v3)) f1)))))
(assert (forall ((?v0 S3) (?v1 S3) (?v2 S3)) (=> (= ?v0 (f85 (f86 f87 ?v1) ?v2)) (= (f117 ?v1 ?v0) f1))))
(assert (forall ((?v0 S4) (?v1 S4) (?v2 S4)) (=> (= ?v0 (f10 (f11 f12 ?v1) ?v2)) (= (f101 (f116 ?v1) ?v0) f1))))
(assert (forall ((?v0 S3) (?v1 S3) (?v2 S3)) (=> (= (f117 (f85 (f86 f87 ?v0) ?v1) ?v2) f1) (= (f117 ?v0 ?v2) f1))))
(assert (forall ((?v0 S4) (?v1 S4) (?v2 S4)) (=> (= (f101 (f116 (f10 (f11 f12 ?v0) ?v1)) ?v2) f1) (= (f101 (f116 ?v0) ?v2) f1))))
(assert (forall ((?v0 S3) (?v1 S3) (?v2 S3)) (=> (= (f117 (f85 (f86 f87 ?v0) ?v1) ?v2) f1) (= (f117 ?v1 ?v2) f1))))
(assert (forall ((?v0 S4) (?v1 S4) (?v2 S4)) (=> (= (f101 (f116 (f10 (f11 f12 ?v0) ?v1)) ?v2) f1) (= (f101 (f116 ?v1) ?v2) f1))))
(assert (forall ((?v0 S3)) (= (f117 f61 ?v0) f1)))
(assert (forall ((?v0 S4)) (= (f101 (f116 f31) ?v0) f1)))
(assert (forall ((?v0 S38)) (= (f118 f71 ?v0) f1)))
(assert (forall ((?v0 S10)) (= (f119 f18 ?v0) f1)))
(assert (forall ((?v0 S3) (?v1 S3) (?v2 S3)) (=> (= (f117 ?v0 ?v1) f1) (= (f117 (f85 (f86 f88 ?v0) ?v2) (f85 (f86 f88 ?v1) ?v2)) f1))))
(assert (forall ((?v0 S4) (?v1 S4) (?v2 S3)) (=> (= (f101 (f116 ?v0) ?v1) f1) (= (f101 (f116 (f3 (f4 f5 ?v0) ?v2)) (f3 (f4 f5 ?v1) ?v2)) f1))))
(assert (forall ((?v0 S4)) (= (= (f102 f103 ?v0) (f102 f103 f20)) (= ?v0 f20))))
(assert (forall ((?v0 S4) (?v1 S4) (?v2 S4)) (= (= (f101 (f116 (f10 (f11 f12 ?v0) ?v1)) (f10 (f11 f12 ?v2) ?v1)) f1) (or (= ?v1 f20) (= (f101 (f116 ?v0) ?v2) f1)))))
(assert (forall ((?v0 S38) (?v1 S38) (?v2 S38)) (= (= (f118 (f96 (f97 f98 ?v0) ?v1) (f96 (f97 f98 ?v2) ?v1)) f1) (or (= ?v1 f80) (= (f118 ?v0 ?v2) f1)))))
(assert (forall ((?v0 S10) (?v1 S10) (?v2 S10)) (= (= (f119 (f15 (f16 f84 ?v0) ?v1) (f15 (f16 f84 ?v2) ?v1)) f1) (or (= ?v1 f21) (= (f119 ?v0 ?v2) f1)))))
(assert (forall ((?v0 S4) (?v1 S4) (?v2 S4)) (let ((?v_0 (f11 f12 ?v0))) (= (= (f101 (f116 (f10 ?v_0 ?v1)) (f10 ?v_0 ?v2)) f1) (or (= ?v0 f20) (= (f101 (f116 ?v1) ?v2) f1))))))
(assert (forall ((?v0 S38) (?v1 S38) (?v2 S38)) (let ((?v_0 (f97 f98 ?v0))) (= (= (f118 (f96 ?v_0 ?v1) (f96 ?v_0 ?v2)) f1) (or (= ?v0 f80) (= (f118 ?v1 ?v2) f1))))))
(assert (forall ((?v0 S10) (?v1 S10) (?v2 S10)) (let ((?v_0 (f16 f84 ?v0))) (= (= (f119 (f15 ?v_0 ?v1) (f15 ?v_0 ?v2)) f1) (or (= ?v0 f21) (= (f119 ?v1 ?v2) f1))))))
(assert (forall ((?v0 S10)) (= (f15 (f102 f103 f20) ?v0) f21)))
(assert (forall ((?v0 S38)) (= (f96 (f120 f121 f72) ?v0) f80)))
(assert (forall ((?v0 S3)) (= (f85 (f122 f123 f62) ?v0) f22)))
(assert (forall ((?v0 S4)) (= (f10 (f124 f125 f32) ?v0) f20)))
(assert (forall ((?v0 S4) (?v1 S4) (?v2 S10)) (= (f15 (f102 f103 (f10 (f11 f12 ?v0) ?v1)) ?v2) (f15 (f16 f84 (f15 (f102 f103 ?v0) ?v2)) (f15 (f102 f103 ?v1) ?v2)))))
(assert (forall ((?v0 S26) (?v1 S26) (?v2 S3)) (= (f85 (f122 f123 (f58 (f99 f100 ?v0) ?v1)) ?v2) (f85 (f86 f87 (f85 (f122 f123 ?v0) ?v2)) (f85 (f122 f123 ?v1) ?v2)))))
(assert (forall ((?v0 S14) (?v1 S14) (?v2 S4)) (= (f10 (f124 f125 (f28 (f94 f95 ?v0) ?v1)) ?v2) (f10 (f11 f12 (f10 (f124 f125 ?v0) ?v2)) (f10 (f124 f125 ?v1) ?v2)))))
(assert (forall ((?v0 S4) (?v1 S3) (?v2 S10)) (= (f15 (f102 f103 (f3 (f4 f5 ?v0) ?v1)) ?v2) (f81 (f82 f83 (f15 (f102 f103 ?v0) ?v2)) ?v1))))
(assert (forall ((?v0 S14) (?v1 S3) (?v2 S4)) (= (f10 (f124 f125 (f25 (f26 f27 ?v0) ?v1)) ?v2) (f3 (f4 f5 (f10 (f124 f125 ?v0) ?v2)) ?v1))))
(assert (forall ((?v0 S10)) (= (f15 (f102 f103 f31) ?v0) f18)))
(assert (forall ((?v0 S38)) (= (f96 (f120 f121 f41) ?v0) f71)))
(assert (forall ((?v0 S3)) (= (f85 (f122 f123 f51) ?v0) f61)))
(assert (forall ((?v0 S38)) (= (= f80 ?v0) (= ?v0 f80))))
(assert (forall ((?v0 S3)) (= (= f22 ?v0) (= ?v0 f22))))
(assert (forall ((?v0 S10)) (= (= f21 ?v0) (= ?v0 f21))))
(assert (forall ((?v0 S4)) (= (= f20 ?v0) (= ?v0 f20))))
(assert (forall ((?v0 S3) (?v1 S3)) (= (f85 (f86 f87 ?v0) ?v1) (f85 (f86 f87 ?v1) ?v0))))
(assert (forall ((?v0 S4) (?v1 S4)) (= (f10 (f11 f12 ?v0) ?v1) (f10 (f11 f12 ?v1) ?v0))))
(assert (forall ((?v0 S3) (?v1 S3) (?v2 S3)) (let ((?v_1 (f86 f87 ?v0)) (?v_0 (f86 f87 ?v1))) (= (f85 ?v_1 (f85 ?v_0 ?v2)) (f85 ?v_0 (f85 ?v_1 ?v2))))))
(assert (forall ((?v0 S4) (?v1 S4) (?v2 S4)) (let ((?v_1 (f11 f12 ?v0)) (?v_0 (f11 f12 ?v1))) (= (f10 ?v_1 (f10 ?v_0 ?v2)) (f10 ?v_0 (f10 ?v_1 ?v2))))))
(assert (forall ((?v0 S3) (?v1 S3) (?v2 S3)) (let ((?v_0 (f86 f87 ?v0))) (= (f85 ?v_0 (f85 (f86 f87 ?v1) ?v2)) (f85 (f86 f87 (f85 ?v_0 ?v1)) ?v2)))))
(assert (forall ((?v0 S4) (?v1 S4) (?v2 S4)) (let ((?v_0 (f11 f12 ?v0))) (= (f10 ?v_0 (f10 (f11 f12 ?v1) ?v2)) (f10 (f11 f12 (f10 ?v_0 ?v1)) ?v2)))))
(assert (forall ((?v0 S3) (?v1 S3) (?v2 S3)) (let ((?v_0 (f86 f87 ?v0))) (= (f85 (f86 f87 (f85 ?v_0 ?v1)) ?v2) (f85 ?v_0 (f85 (f86 f87 ?v1) ?v2))))))
(assert (forall ((?v0 S4) (?v1 S4) (?v2 S4)) (let ((?v_0 (f11 f12 ?v0))) (= (f10 (f11 f12 (f10 ?v_0 ?v1)) ?v2) (f10 ?v_0 (f10 (f11 f12 ?v1) ?v2))))))
(assert (forall ((?v0 S3) (?v1 S3) (?v2 S3)) (let ((?v_0 (f86 f87 ?v0))) (= (f85 (f86 f87 (f85 ?v_0 ?v1)) ?v2) (f85 ?v_0 (f85 (f86 f87 ?v1) ?v2))))))
(assert (forall ((?v0 S4) (?v1 S4) (?v2 S4)) (let ((?v_0 (f11 f12 ?v0))) (= (f10 (f11 f12 (f10 ?v_0 ?v1)) ?v2) (f10 ?v_0 (f10 (f11 f12 ?v1) ?v2))))))
(assert (forall ((?v0 S3) (?v1 S3) (?v2 S3)) (let ((?v_0 (f86 f87 ?v0))) (= (f85 (f86 f87 (f85 ?v_0 ?v1)) ?v2) (f85 (f86 f87 (f85 ?v_0 ?v2)) ?v1)))))
(assert (forall ((?v0 S4) (?v1 S4) (?v2 S4)) (let ((?v_0 (f11 f12 ?v0))) (= (f10 (f11 f12 (f10 ?v_0 ?v1)) ?v2) (f10 (f11 f12 (f10 ?v_0 ?v2)) ?v1)))))
(assert (forall ((?v0 S3) (?v1 S3) (?v2 S3) (?v3 S3)) (let ((?v_0 (f86 f87 ?v0)) (?v_1 (f85 (f86 f87 ?v2) ?v3))) (= (f85 (f86 f87 (f85 ?v_0 ?v1)) ?v_1) (f85 ?v_0 (f85 (f86 f87 ?v1) ?v_1))))))
(assert (forall ((?v0 S4) (?v1 S4) (?v2 S4) (?v3 S4)) (let ((?v_0 (f11 f12 ?v0)) (?v_1 (f10 (f11 f12 ?v2) ?v3))) (= (f10 (f11 f12 (f10 ?v_0 ?v1)) ?v_1) (f10 ?v_0 (f10 (f11 f12 ?v1) ?v_1))))))
(assert (forall ((?v0 S3) (?v1 S3) (?v2 S3) (?v3 S3)) (let ((?v_1 (f86 f87 (f85 (f86 f87 ?v0) ?v1))) (?v_0 (f86 f87 ?v2))) (= (f85 ?v_1 (f85 ?v_0 ?v3)) (f85 ?v_0 (f85 ?v_1 ?v3))))))
(assert (forall ((?v0 S4) (?v1 S4) (?v2 S4) (?v3 S4)) (let ((?v_1 (f11 f12 (f10 (f11 f12 ?v0) ?v1))) (?v_0 (f11 f12 ?v2))) (= (f10 ?v_1 (f10 ?v_0 ?v3)) (f10 ?v_0 (f10 ?v_1 ?v3))))))
(assert (forall ((?v0 S3) (?v1 S3) (?v2 S3) (?v3 S3)) (let ((?v_0 (f86 f87 ?v0))) (= (f85 (f86 f87 (f85 ?v_0 ?v1)) (f85 (f86 f87 ?v2) ?v3)) (f85 (f86 f87 (f85 ?v_0 ?v2)) (f85 (f86 f87 ?v1) ?v3))))))
(assert (forall ((?v0 S4) (?v1 S4) (?v2 S4) (?v3 S4)) (let ((?v_0 (f11 f12 ?v0))) (= (f10 (f11 f12 (f10 ?v_0 ?v1)) (f10 (f11 f12 ?v2) ?v3)) (f10 (f11 f12 (f10 ?v_0 ?v2)) (f10 (f11 f12 ?v1) ?v3))))))
(assert (forall ((?v0 S38)) (= (= f71 ?v0) (= ?v0 f71))))
(assert (forall ((?v0 S3)) (= (= f61 ?v0) (= ?v0 f61))))
(assert (forall ((?v0 S10)) (= (= f18 ?v0) (= ?v0 f18))))
(assert (forall ((?v0 S4)) (= (f3 (f4 f5 ?v0) f61) ?v0)))
(assert (forall ((?v0 S4) (?v1 S3) (?v2 S3)) (let ((?v_0 (f4 f5 ?v0))) (= (f3 (f4 f5 (f3 ?v_0 ?v1)) ?v2) (f3 ?v_0 (f85 (f86 f87 ?v1) ?v2))))))
(assert (forall ((?v0 S38)) (= (f96 (f97 f98 f80) ?v0) f80)))
(assert (forall ((?v0 S3)) (= (f85 (f86 f87 f22) ?v0) f22)))
(assert (forall ((?v0 S10)) (= (f15 (f16 f84 f21) ?v0) f21)))
(assert (forall ((?v0 S4)) (= (f10 (f11 f12 f20) ?v0) f20)))
(assert (forall ((?v0 S10)) (= (f15 (f16 f84 f21) ?v0) f21)))
(assert (forall ((?v0 S10)) (= (f15 (f16 f84 f21) ?v0) f21)))
(assert (forall ((?v0 S38)) (= (f96 (f97 f98 ?v0) f80) f80)))
(assert (forall ((?v0 S3)) (= (f85 (f86 f87 ?v0) f22) f22)))
(assert (forall ((?v0 S10)) (= (f15 (f16 f84 ?v0) f21) f21)))
(assert (forall ((?v0 S4)) (= (f10 (f11 f12 ?v0) f20) f20)))
(assert (forall ((?v0 S10)) (= (f15 (f16 f84 ?v0) f21) f21)))
(assert (forall ((?v0 S10)) (= (f15 (f16 f84 ?v0) f21) f21)))
(assert (forall ((?v0 S38)) (= (f96 (f97 f98 f71) ?v0) ?v0)))
(assert (forall ((?v0 S3)) (= (f85 (f86 f87 f61) ?v0) ?v0)))
(assert (forall ((?v0 S10)) (= (f15 (f16 f84 f18) ?v0) ?v0)))
(assert (forall ((?v0 S4)) (= (f10 (f11 f12 f31) ?v0) ?v0)))
(assert (forall ((?v0 S38)) (= (f96 (f97 f98 f71) ?v0) ?v0)))
(assert (forall ((?v0 S3)) (= (f85 (f86 f87 f61) ?v0) ?v0)))
(assert (forall ((?v0 S10)) (= (f15 (f16 f84 f18) ?v0) ?v0)))
(assert (forall ((?v0 S4)) (= (f10 (f11 f12 f31) ?v0) ?v0)))
(assert (forall ((?v0 S38)) (= (f96 (f97 f98 f71) ?v0) ?v0)))
(assert (forall ((?v0 S3)) (= (f85 (f86 f87 f61) ?v0) ?v0)))
(assert (forall ((?v0 S10)) (= (f15 (f16 f84 f18) ?v0) ?v0)))
(assert (forall ((?v0 S4)) (= (f10 (f11 f12 f31) ?v0) ?v0)))
(assert (forall ((?v0 S4) (?v1 S4) (?v2 S3)) (=> (forall ((?v3 S10)) (=> (= (f15 (f102 f103 ?v0) ?v3) f21) (= (f15 (f102 f103 ?v1) ?v3) f21))) (=> (= (f7 f8 ?v0) ?v2) (=> (not (= ?v2 f22)) (= (f101 (f116 ?v0) (f3 (f4 f5 ?v1) ?v2)) f1))))))
(assert (forall ((?v0 S3) (?v1 S3)) (=> (= ?v0 (f85 (f86 f87 ?v0) ?v1)) (or (= ?v1 f61) (= ?v0 f22)))))
(assert (forall ((?v0 S4) (?v1 S10)) (= (= (f15 (f102 f103 ?v0) ?v1) f21) (or (= ?v0 f20) (not (= (f7 (f126 f127 ?v1) ?v0) f22))))))
(assert (forall ((?v0 S19) (?v1 S38)) (= (= (f96 (f120 f121 ?v0) ?v1) f80) (or (= ?v0 f72) (not (= (f63 (f128 f129 ?v1) ?v0) f22))))))
(assert (forall ((?v0 S14) (?v1 S4)) (= (= (f10 (f124 f125 ?v0) ?v1) f20) (or (= ?v0 f32) (not (= (f23 (f130 f131 ?v1) ?v0) f22))))))
(assert (forall ((?v0 S3) (?v1 S3)) (=> (= (f117 ?v0 ?v1) f1) (=> (forall ((?v2 S3)) (=> (= ?v1 (f85 (f86 f87 ?v0) ?v2)) false)) false))))
(assert (forall ((?v0 S4) (?v1 S4)) (=> (= (f101 (f116 ?v0) ?v1) f1) (=> (forall ((?v2 S4)) (=> (= ?v1 (f10 (f11 f12 ?v0) ?v2)) false)) false))))
(assert (forall ((?v0 S3)) (= (f85 (f86 f87 f61) ?v0) ?v0)))
(assert (forall ((?v0 S3) (?v1 S3)) (= (= f61 (f85 (f86 f87 ?v0) ?v1)) (and (= ?v0 f61) (= ?v1 f61)))))
(assert (forall ((?v0 S3)) (= (f85 (f86 f87 ?v0) f61) ?v0)))
(assert (forall ((?v0 S3)) (= (= (f117 ?v0 f61) f1) (= ?v0 f61))))
(assert (forall ((?v0 S3) (?v1 S3) (?v2 S3)) (let ((?v_0 (f86 f87 ?v0))) (= (f85 (f86 f87 (f85 ?v_0 ?v1)) ?v2) (f85 ?v_0 (f85 (f86 f87 ?v1) ?v2))))))
(assert (forall ((?v0 S3) (?v1 S3)) (= (f85 (f86 f87 ?v0) ?v1) (f85 (f86 f87 ?v1) ?v0))))
(assert (forall ((?v0 S3)) (= (f85 (f86 f87 f22) ?v0) f22)))
(assert (forall ((?v0 S3)) (= (f85 (f86 f87 ?v0) f22) f22)))
(assert (forall ((?v0 S3) (?v1 S3)) (= (= (f85 (f86 f87 ?v0) ?v1) f22) (or (= ?v0 f22) (= ?v1 f22)))))
(assert (forall ((?v0 S3) (?v1 S3) (?v2 S3)) (let ((?v_0 (f86 f87 ?v0))) (= (= (f85 ?v_0 ?v1) (f85 ?v_0 ?v2)) (or (= ?v1 ?v2) (= ?v0 f22))))))
(assert (forall ((?v0 S3) (?v1 S3) (?v2 S3)) (= (= (f85 (f86 f87 ?v0) ?v1) (f85 (f86 f87 ?v2) ?v1)) (or (= ?v0 ?v2) (= ?v1 f22)))))
(assert (forall ((?v0 S3) (?v1 S3)) (= (= (f85 (f86 f87 ?v0) ?v1) f61) (and (= ?v0 f61) (= ?v1 f61)))))
(assert (forall ((?v0 S4)) (=> (not (exists ((?v1 S10) (?v2 S4)) (and (not (= ?v1 f21)) (and (= ?v2 f20) (= ?v0 (f10 (f13 f14 ?v1) ?v2)))))) (exists ((?v1 S10)) (= (f15 (f102 f103 ?v0) ?v1) f21)))))
(assert (forall ((?v0 S10) (?v1 S4)) (= (f101 (f116 (f3 (f4 f5 (f10 (f13 f14 (f15 f132 ?v0)) (f10 (f13 f14 f18) f20))) (f7 (f126 f127 ?v0) ?v1))) ?v1) f1)))
(assert (forall ((?v0 S38) (?v1 S19)) (= (f133 (f65 (f66 f67 (f68 (f69 f70 (f96 f134 ?v0)) (f68 (f69 f70 f71) f72))) (f63 (f128 f129 ?v0) ?v1)) ?v1) f1)))
(check-sat)
(exit)
